NAME : tsp_250_sol.txt
COMMENT : OR-Tools Guided Local Search
TYPE : TOUR
DIMENSION : 50
COST : 5632
STATUS : ROUTING_SUCCESS
GAP : 0.00% (Reference Solution)
TOUR_SECTION
1
37
25
40
18
33
32
22
38
11
17
12
3
28
39
50
36
41
29
42
31
14
8
34
23
19
20
26
45
27
6
4
10
47
7
21
30
24
5
44
43
35
13
46
2
16
48
15
49
9
-1
